! Electronic relaxation
ALGO   = Damped    ! Algorithm for electronic relaxation
TIME   = 0.4       ! Time step for electronic relaxation
NELMIN = 4         ! Minimum # of electronic steps
NELM   = 300       ! Maximun # of electronics steps
EDIFF  = 1E-6      ! Accuracy for electronic groundstate
ENCUT  = 500       ! Cut-off energy for plane wave expansion
PREC   = Normal    ! Low/Normal/Accurate
LREAL  = Auto      ! Projection in reciprocal space?
ISMEAR = 0         ! Smearing of partial occupancies.
SIGMA  = 0.15      ! Smearing width
ISPIN  = 1         ! Spin polarization?
LHFCALC = .TRUE.   ! Hartree-Fock?
HFSCREEN = 0.2     ! Range-separated hybrid functional: HSE06 (0.2), HSE03 (0.3)
SYMPREC = 1E-4     ! Accuracy of positions for symmetry. Default 1E-5

! Ionic relaxation
NSW    = 0          ! Static high-accuracy calculation without relaxation

! Output options 
LWAVE  = .TRUE.   ! Write WAVECAR?  
NEDOS  = 3001      ! Number of grid points for DOS
!EMIN   = -20      ! Minimum energy for evaluation of DOS
!EMAX   =  20      ! Maximum energy for evaluation of DOS
LELF   = .TRUE.    ! Electron localization function
LORBIT = 11        ! Write LDOS to DOSCAR + PROCAR 
 
! Memory handling
NPAR    = 4
NCORE = 10 
