cBN
1.0
        2.5667977333         0.0000000000         0.0000000000
        1.2833988667         2.2229120434         0.0000000000
        1.2833988667         0.7409706811         2.0957815732
    B    N
    1    1
Direct
     0.000000000         0.000000000         0.000000000
     0.250000000         0.250000000         0.250000000
