! Electronic relaxation
ALGO   = Damped    ! Algorithm for electronic relaxation
TIME   = 0.4       ! Time step for electronic relaxation
NELMIN = 4         ! Minimum # of electronic steps
NELM   = 300       ! Maximun # of electronics steps
EDIFF  = 1E-6      ! Accuracy for electronic groundstate
ENCUT  = 500       ! Cut-off energy for plane wave expansion
PREC   = Normal    ! Low/Normal/Accurate
LREAL  = Auto      ! Projection in reciprocal space?
ISMEAR = 0         ! Smearing of partial occupancies.
SIGMA  = 0.005     ! Smearing width
ICHARG = 11
ISPIN  = 1         ! Spin polarization?
LHFCALC = .TRUE.   ! Hartree-Fock?
HFSCREEN = 0.2     ! Range-separated hybrid functional: HSE06 (0.2), HSE03 (0.3)
AEXX = 0.25
LDIAG = .TRUE.

! Ionic relaxation
NSW    = 0          ! Static high-accuracy calculation without relaxation
IBRION   = -1       ! Single Point
ISIF     = 2        ! Stress and Relaxation: 2-Ion 3-cell+ion
ADDGRID  = .TRUE.   ! Improve the grid accuracy

! Output options 
LWAVE  = .FALSE.   ! Write WAVECAR?  
LORBIT = 11        ! Write LDOS to DOSCAR + PROCAR 
 
! Memory handling
NPAR    = 4
NCORE = 10 
